\ LP format - for model browsing. Use MPS format to capture full model detail.
Minimize
  10 m1 + 30 h1 + 30 h2 + 10 m2
Subject To
 R0: 4 m1 + 20 h1 + 20 h2 + 4 m2 >= 300
Bounds
Generals
 m1 h1 h2 m2
End
